c This is UnifRandomKSATGenerator
c uniform random 3-SAT generated instance with: 
c clause length: 3 
c number variables: 10 
c number clauses: 43 
c clause to variable ratio: 4.27 
c random number generator name: SHA1PRNG 
c random number generator provider: SUN 
c random number generator seed: 2814525605773480050 
p cnf 10 43
2 -7 -8 0
10 3 -5 0
1 9 7 0
1 10 7 0
9 5 7 0
2 5 -8 0
-10 -2 4 0
10 6 -8 0
10 4 -7 0
-10 4 -6 0
-9 -4 5 0
3 -4 -7 0
8 -2 6 0
9 2 -4 0
-9 5 -8 0
3 4 5 0
-6 7 -8 0
9 2 6 0
9 -4 -7 0
-9 -6 -7 0
-9 5 7 0
8 -10 3 0
-2 -5 -6 0
-4 3 6 0
-9 1 10 0
9 1 10 0
-3 -7 6 0
8 -2 3 0
-9 -7 6 0
10 4 7 0
10 -5 -8 0
-4 -6 -7 0
2 3 -5 0
-2 1 -7 0
8 -2 9 0
-4 6 -8 0
1 2 6 0
-10 9 -8 0
-2 -3 10 0
-9 8 7 0
1 -3 -8 0
9 -4 5 0
-2 5 7 0
